Traveling Salesman Problem/TSP_generados/Aleatorio1620391350_15.tsp
NAME: Aleatorio1620391350_15.tsp
COMMENT: Randomly generated scenario
TYPE: TSP
DIMENSION: 15
EDGE_WEIGHT_TYPE: ATT
NODE_COORD_SECTION
1 23.54 42.44
2 0.56 24.56
3 49.7 11.42
4 23.1 21.02
5 16.4 21.27
6 34.97 39.66
7 39.9 19.57
8 3.87 24.53
9 41.28 4.14
10 35.7 3.63
11 23.98 38.15
12 6.94 14.31
13 22.23 36.65
14 40.44 36.24
15 21.45 38.99
