Traveling Salesman Problem/TSP_generados/Aleatorio1620391350_15.opt.tour
NAME: Aleatorio1620391350_15.opt.tour
COMMENT: Optimal solution for Aleatorio1620391350_15 (150.68486614144425)
TYPE: TOUR
DIMENSION: 15
TOUR_SECTION
1 6 14 7 3 9 10 4 5 12 2 8 13 11 15
-1
EOF
